lbl,CUST NO.,READY TIME,XCOORD.,YCOORD.,DEMAND,DUE DATE,SERVICE TIME
1,0,0,70,70,0,1351,0
1,113,15,67,55,10,62,90
1,155,79,63,57,10,140,90
1,78,173,62,58,20,229,90
1,175,262,61,54,10,329,90
1,13,364,63,50,10,416,90
1,43,448,61,48,20,517,90
1,2,553,59,52,20,602,90
1,90,641,57,53,10,697,90
1,67,745,59,56,20,780,90
1,17,824,57,59,10,890,90
1,39,931,61,59,20,971,90
1,107,1011,64,61,20,1077,90
